p cnf 23 11
e 1 2 3 0
a 4 5 6 0
e 7 0
a 8 0
e 9 0
a 10 11 12 0
e 13 14 15 16 17 0
a 18 19 0
e 20 0
a 21 0
e 22 0
a 23 0
10 22 -7 23 0
-18 12 -21 11 -10 0
-15 9 12 0
7 17 2 18 -11 0
-7 2 -5 0
22 -17 -12 0
3 16 -10 -17 -14 0
14 9 -15 2 -19 0
23 13 -19 20 0
5 -20 8 0
-16 -2 -15 0
